(set-logic QF_S)
(declare-fun var0 () Bool)
(declare-fun var1 () String)
(declare-fun var2 () String)
(declare-fun var3 () String)
(declare-fun var4 () Int)
(declare-fun var5 () Int)
(declare-fun var6 () String)
(declare-fun var7 () Int)
(declare-fun var8 () Int)
(assert (not var0))
(assert (str.suffixof var1 var2))
(assert (<= (str.indexof (str.substr var3 var4 var5) (str.replace var6 var3 var3) (str.indexof var6 var1 var7)) (str.len (str.at var1 var8))))
(assert (>= 187 var7))
(check-sat)